Reading model...
...model read.
creating competitive generators file...
...competitive generators recorded.
Loading data...
.. real-time data read.
Compiling instance...
1200.0
100.0
1271.1398280000005
105.92831900000004
...instance created.
Creating Offer Mitigation (model will solve as dispatch if TRUE)...
...storage offer mitigation file created
Converting model to MPEC...
...converted
NOTE: initial MIP solve with only storage competitive to get feasible solution
Solving...

Welcome to IBM(R) ILOG(R) CPLEX(R) Interactive Optimizer 12.9.0.0
  with Simplex, Mixed Integer & Barrier Optimizers
5725-A06 5725-A29 5724-Y48 5724-Y49 5724-Y54 5724-Y55 5655-Y21
Copyright IBM Corp. 1988, 2019.  All Rights Reserved.

Type 'help' for a list of available commands.
Type 'help' followed by a command name for more
information on commands.

CPLEX> Logfile 'cplex.log' closed.
Logfile 'C:\Users\llavin\Desktop\test826\logs\tmpskim11mb.cplex.log' open.
CPLEX> New value for parallel optimization mode: -1
CPLEX> New value for mixed integer optimality gap tolerance: 0.05
CPLEX> New value for emphasis for MIP optimization: 1
CPLEX> New value for integrality tolerance: 1e-10
CPLEX> New value for deterministic time limit in ticks: 50000
CPLEX> Problem 'C:\Users\llavin\Desktop\test826\logs\tmp1_xyucss.pyomo.lp' read.
Read time = 0.52 sec. (28.53 ticks)
CPLEX> Problem name         : C:\Users\llavin\Desktop\test826\logs\tmp1_xyucss.pyomo.lp
Objective sense      : Maximize
Variables            :  107783  [Nneg: 1,  Box: 44058,  Free: 8928,
                                 Binary: 54796]
Objective nonzeros   :   18339
Linear constraints   :  246901  [Less: 82864,  Greater: 118424,  Equal: 45613]
  Nonzeros           :  619133
  RHS nonzeros       :  135843

Variables            : Min LB: -5000.000        Max UB: 1000000.       
Objective nonzeros   : Min   : 0.008333333      Max   : 255.9283       
Linear constraints   :
  Nonzeros           : Min   : 0.008333333      Max   : 1000000.       
  RHS nonzeros       : Min   : 0.008333333      Max   : 1000000.       
CPLEX> CPXPARAM_Parallel                                -1
CPXPARAM_Emphasis_MIP                            1
CPXPARAM_DetTimeLimit                            50000
CPXPARAM_MIP_Tolerances_MIPGap                   0.050000000000000003
CPXPARAM_MIP_Tolerances_Integrality              1e-10
Tried aggregator 3 times.
MIP Presolve eliminated 176826 rows and 37372 columns.
MIP Presolve added 7020 rows and 0 columns.
MIP Presolve modified 53022 coefficients.
Aggregator did 26008 substitutions.
Reduced MIP has 51087 rows, 43507 columns, and 151649 nonzeros.
Reduced MIP has 17225 binaries, 0 generals, 0 SOSs, and 0 indicators.
Presolve time = 0.61 sec. (376.60 ticks)
Probing fixed 823 vars, tightened 13857 bounds.
Probing time = 0.41 sec. (18.48 ticks)
Tried aggregator 2 times.
MIP Presolve eliminated 1837 rows and 1681 columns.
MIP Presolve modified 9349 coefficients.
Aggregator did 96 substitutions.
Reduced MIP has 49154 rows, 41730 columns, and 140796 nonzeros.
Reduced MIP has 16402 binaries, 0 generals, 0 SOSs, and 0 indicators.
Presolve time = 0.27 sec. (247.01 ticks)
Probing fixed 0 vars, tightened 3158 bounds.
Probing time = 0.50 sec. (19.17 ticks)
Clique table members: 83196.
MIP emphasis: integer feasibility.
MIP search method: dynamic search.
Parallel mode: opportunistic, using up to 32 threads.
Root relaxation solution time = 1.69 sec. (2624.03 ticks)

        Nodes                                         Cuts/
   Node  Left     Objective  IInf  Best Integer    Best Bound    ItCnt     Gap

      0     0     5360.1516   432                   5360.1516     8873         
      0     0     5353.9336    77                   Cuts: 160     9000         
      0     0     5336.2447    83                    Cuts: 43     9040         
      0     0     5026.3090    66                     Cuts: 3     9075         
      0    15     5024.4871    60                   Covers: 4     9107         
Elapsed time = 9.95 sec. (5316.16 ticks, tree = 0.02 MB, solutions = 0)
    386   171     1488.4877    10                   5025.8781    14754         
*   748+  437                         1485.7913     5025.8781           238.26%
   1089   594     1591.1338    11     1486.7207     5025.8781    27243  238.05%
*  1091   417      integral     0     1487.0464     5025.8781    22463  237.98%
   1362   302     1485.5347     0     1487.0464     5025.8407    20772  237.97%
   1680   628     1587.5840    13     1487.0464     5025.8407    28068  237.97%
   2045   779     1591.4801    13     1487.0464     5025.6508    32804  237.96%
   2450   836     1587.0613    15     1487.0464     5025.6508    33685  237.96%
   2980   953     1494.4379    14     1487.0464     5025.6508    35708  237.96%
   3472   980     1489.0073     8     1487.6171     5025.6508    36429  237.83%
   5294  2652        cutoff           1487.6171     4913.8135    61700  230.31%
Elapsed time = 30.41 sec. (8404.76 ticks, tree = 34.81 MB, solutions = 26)
   6348  3200     1589.4781    13     1487.6171     4913.8135    67586  230.31%
   6394  4333        cutoff           1487.6171     1592.5717    88643    7.06%
   6877   232        cutoff           1487.6171     1592.5194    94938    7.05%
   7225   234     1588.9756    29     1487.6171     1592.5194    96157    7.05%

Implied bound cuts applied:  7
Flow cuts applied:  27
Mixed integer rounding cuts applied:  1
Gomory fractional cuts applied:  4

Root node processing (before b&c):
  Real time             =    6.13 sec. (5249.32 ticks)
Parallel b&c, 32 threads:
  Real time             =   44.47 sec. (12572.68 ticks)
  Sync time (average)   =    5.94 sec.
  Wait time (average)   =    0.37 sec.
                          ------------
Total (root+branch&cut) =   50.59 sec. (17822.00 ticks)

Solution pool: 26 solutions saved.

MIP - Integer optimal, tolerance (0.05/1e-06):  Objective =  1.4876171207e+03
Current MIP best bound =  1.5420570026e+03 (gap = 54.4399, 3.66%)
Solution time =   50.63 sec.  Iterations = 101240  Nodes = 7286 (304)
Deterministic time = 17822.31 ticks  (352.05 ticks/sec)

CPLEX> Incumbent solution written to file 'C:\Users\llavin\Desktop\test826\logs\tmpjbbc7yzp.cplex.sol'.
CPLEX> NOTE: no warmstart specified for MIP iteration, default behavior is true
NOTE: resolving with all competitive generators using storage-only solution to warmstart
Solving...

Welcome to IBM(R) ILOG(R) CPLEX(R) Interactive Optimizer 12.9.0.0
  with Simplex, Mixed Integer & Barrier Optimizers
5725-A06 5725-A29 5724-Y48 5724-Y49 5724-Y54 5724-Y55 5655-Y21
Copyright IBM Corp. 1988, 2019.  All Rights Reserved.

Type 'help' for a list of available commands.
Type 'help' followed by a command name for more
information on commands.

CPLEX> Logfile 'cplex.log' closed.
Logfile 'C:\Users\llavin\Desktop\test826\logs\tmpyyxq73l0.cplex.log' open.
CPLEX> New value for parallel optimization mode: -1
CPLEX> New value for mixed integer optimality gap tolerance: 0.05
CPLEX> New value for emphasis for MIP optimization: 1
CPLEX> New value for integrality tolerance: 1e-10
CPLEX> New value for deterministic time limit in ticks: 50000
CPLEX> Problem 'C:\Users\llavin\Desktop\test826\logs\tmpijgsxr4_.pyomo.lp' read.
Read time = 0.61 sec. (28.58 ticks)
CPLEX> MIP start file 'C:\Users\llavin\Desktop\test826\logs\tmpjlbspf32.cplex.mst' read.
CPLEX> Problem name         : C:\Users\llavin\Desktop\test826\logs\tmpijgsxr4_.pyomo.lp
Objective sense      : Maximize
Variables            :  109223  [Nneg: 1,  Box: 45498,  Free: 8928,
                                 Binary: 54796]
Objective nonzeros   :   19731
Linear constraints   :  246901  [Less: 82864,  Greater: 118424,  Equal: 45613]
  Nonzeros           :  619133
  RHS nonzeros       :  135843

Variables            : Min LB: -5000.000        Max UB: 1000000.       
Objective nonzeros   : Min   : 0.008333333      Max   : 255.9283       
Linear constraints   :
  Nonzeros           : Min   : 0.008333333      Max   : 1000000.       
  RHS nonzeros       : Min   : 0.008333333      Max   : 1000000.       
CPLEX> CPXPARAM_Parallel                                -1
CPXPARAM_Emphasis_MIP                            1
CPXPARAM_DetTimeLimit                            50000
CPXPARAM_MIP_Tolerances_MIPGap                   0.050000000000000003
CPXPARAM_MIP_Tolerances_Integrality              1e-10
Warning:  No solution found from 1 MIP starts.
Retaining values of one MIP start for possible repair.
Tried aggregator 3 times.
MIP Presolve eliminated 176826 rows and 38812 columns.
MIP Presolve added 7020 rows and 0 columns.
MIP Presolve modified 53022 coefficients.
Aggregator did 26008 substitutions.
Reduced MIP has 51087 rows, 43507 columns, and 151649 nonzeros.
Reduced MIP has 17225 binaries, 0 generals, 0 SOSs, and 0 indicators.
Presolve time = 0.66 sec. (377.35 ticks)
Probing fixed 823 vars, tightened 13857 bounds.
Probing time = 0.44 sec. (18.48 ticks)
Tried aggregator 2 times.
MIP Presolve eliminated 1837 rows and 1681 columns.
MIP Presolve modified 9349 coefficients.
Aggregator did 96 substitutions.
Reduced MIP has 49154 rows, 41730 columns, and 140796 nonzeros.
Reduced MIP has 16402 binaries, 0 generals, 0 SOSs, and 0 indicators.
Presolve time = 0.28 sec. (247.02 ticks)
Probing fixed 0 vars, tightened 3158 bounds.
Probing time = 0.56 sec. (19.17 ticks)
Clique table members: 83196.
MIP emphasis: integer feasibility.
MIP search method: dynamic search.
Parallel mode: opportunistic, using up to 32 threads.
Root relaxation solution time = 2.09 sec. (2960.86 ticks)

        Nodes                                         Cuts/
   Node  Left     Objective  IInf  Best Integer    Best Bound    ItCnt     Gap

      0     0    23626.3977   758                  23626.3977    12140         
      0     0    23596.8205   247                   Cuts: 312    12467         
      0     0    23456.2463   207                   Cuts: 144    12625         
      0     0    23228.0627   201                    Cuts: 70    12734         
Repair heuristic found nothing.
      0    11    22161.8044   201                    Cuts: 13    13019         
Elapsed time = 10.72 sec. (5877.44 ticks, tree = 0.02 MB, solutions = 0)
    321    83    infeasible                        23126.9672    13990         
    632   215    22314.6788   175                  23126.9672    20400         
   1012   453    19632.0261   101                  23126.9672    35488         
   1407   618    19577.0810   110                  23126.9672    38002         
   1586  1086    19576.7621    99                  23126.9672    41832         
   1930  1130    19560.6617    75                  23126.9672    42404         
   2330  1365    18032.0772    91                  23126.9672    44114         
   2705  1430    11789.0472   145                  23126.9672    45788         
   3025  2056    19483.4791    58                  23126.9672    53911         
   4155  3107    16573.6990    22                  23126.9672    86126         
Elapsed time = 30.63 sec. (8982.16 ticks, tree = 100.51 MB, solutions = 0)
   5181  3774    19465.8613    48                  23126.9672   122460         
   6275  4565   -88869.4093   182                  23126.9672   162387         
*  7287+ 2614                        19348.6461    23126.9672            19.53%
   8579  2613    19587.3830    79    19348.6461    23126.9672   232030   19.53%

Clique cuts applied:  1
Cover cuts applied:  1
Implied bound cuts applied:  7
Flow cuts applied:  274
Mixed integer rounding cuts applied:  2
Gomory fractional cuts applied:  8

Root node processing (before b&c):
  Real time             =    7.53 sec. (5806.54 ticks)
Parallel b&c, 32 threads:
  Real time             =   49.20 sec. (10865.13 ticks)
  Sync time (average)   =    1.85 sec.
  Wait time (average)   =    0.00 sec.
                          ------------
Total (root+branch&cut) =   56.73 sec. (16671.68 ticks)

Solution pool: 1 solution saved.

MIP - Integer optimal, tolerance (0.05/1e-06):  Objective =  1.9348646096e+04
Current MIP best bound =  1.9732127479e+04 (gap = 383.481, 1.98%)
Solution time =   56.75 sec.  Iterations = 294997  Nodes = 8856 (3613)
Deterministic time = 16671.99 ticks  (293.78 ticks/sec)

CPLEX> Incumbent solution written to file 'C:\Users\llavin\Desktop\test826\logs\tmp5dk8k8er.cplex.sol'.
CPLEX> Exporting results... 
